Traveling Salesman Problem/TSP_generados/Aleatorio1620390959_10.tsp
NAME: Aleatorio1620390959_10.tsp
COMMENT: Randomly generated scenario
TYPE: TSP
DIMENSION: 10
EDGE_WEIGHT_TYPE: ATT
NODE_COORD_SECTION
1 41.07 19.22
2 4.74 35.31
3 16.53 25.09
4 40.43 9.93
5 12.63 2.62
6 13.69 36.74
7 21.76 17.34
8 32.32 5.02
9 22.78 35.88
10 19.28 33.69
