Traveling Salesman Problem/TSP_generados/Aleatorio1620390959_10.opt.tour
NAME: Aleatorio1620390959_10.opt.tour
COMMENT: Optimal solution for Aleatorio1620390959_10 (125.20276810683578)
TYPE: TOUR
DIMENSION: 10
TOUR_SECTION
1 4 8 5 7 3 2 6 10 9
-1
EOF
